403.0,503.0,16.0,41.0
403.0,503.0,16.0,41.0
403.0,503.0,16.0,41.0
403.0,503.0,16.0,41.0
403.0,502.0,16.0,41.0
403.0,502.0,16.0,41.0
403.0,501.0,16.0,41.0
403.0,501.0,16.0,41.0
403.0,501.0,16.0,41.0
403.0,501.0,16.0,41.0
403.0,501.0,16.0,41.0
402.0,500.0,16.0,41.0
402.0,500.0,16.0,41.0
402.0,500.0,16.0,41.0
403.0,500.0,16.0,41.0
403.0,500.0,16.0,41.0
403.0,499.0,16.0,41.0
403.0,498.0,16.0,41.0
403.0,497.0,16.0,41.0
403.0,496.0,16.0,41.0
403.0,495.0,16.0,41.0
403.0,494.0,16.0,41.0
403.0,492.0,16.0,41.0
404.0,491.0,16.0,41.0
404.0,489.0,16.0,41.0
404.0,488.0,16.0,41.0
404.0,486.0,16.0,41.0
404.0,485.0,16.0,41.0
404.0,483.0,16.0,41.0
403.0,482.0,16.0,41.0
403.0,480.0,16.0,41.0
403.0,479.0,16.0,40.0
403.0,477.0,16.0,39.0
403.0,476.0,16.0,38.0
403.0,475.0,16.0,38.0
404.0,473.0,15.0,39.0
404.0,472.0,15.0,39.0
404.0,471.0,15.0,39.0
405.0,471.0,15.0,39.0
405.0,470.0,15.0,39.0
405.0,469.0,16.0,39.0
405.0,468.0,16.0,39.0
405.0,467.0,17.0,39.0
405.0,465.0,17.0,39.0
404.0,463.0,17.0,39.0
404.0,461.0,17.0,39.0
404.0,461.0,17.0,39.0
405.0,461.0,17.0,39.0
405.0,461.0,17.0,39.0
405.0,460.0,17.0,39.0
405.0,460.0,17.0,39.0
405.0,459.0,17.0,39.0
405.0,459.0,17.0,39.0
405.0,458.0,17.0,39.0
405.0,458.0,17.0,39.0
405.0,458.0,17.0,39.0
405.0,457.0,17.0,39.0
405.0,457.0,17.0,39.0
405.0,457.0,17.0,39.0
405.0,456.0,17.0,39.0
405.0,456.0,17.0,39.0
404.0,455.0,17.0,40.0
404.0,454.0,18.0,40.0
403.0,453.0,18.0,41.0
403.0,452.0,18.0,41.0
403.0,452.0,18.0,41.0
403.0,451.0,18.0,41.0
403.0,450.0,18.0,41.0
404.0,449.0,18.0,41.0
404.0,448.0,18.0,41.0
404.0,447.0,18.0,41.0
404.0,447.0,18.0,40.0
404.0,446.0,18.0,40.0
404.0,445.0,18.0,40.0
404.0,445.0,18.0,40.0
404.0,444.0,18.0,40.0
404.0,443.0,18.0,40.0
404.0,442.0,18.0,40.0
404.0,441.0,18.0,40.0
404.0,440.0,18.0,40.0
403.0,439.0,18.0,40.0
403.0,438.0,18.0,40.0
403.0,438.0,17.0,40.0
404.0,437.0,17.0,40.0
404.0,437.0,16.0,40.0
404.0,436.0,16.0,40.0
404.0,436.0,16.0,40.0
404.0,435.0,16.0,40.0
404.0,434.0,16.0,40.0
404.0,434.0,16.0,40.0
404.0,433.0,16.0,40.0
404.0,432.0,16.0,40.0
404.0,431.0,16.0,40.0
404.0,430.0,16.0,40.0
404.0,429.0,16.0,40.0
404.0,428.0,16.0,40.0
404.0,427.0,16.0,40.0
404.0,426.0,16.0,40.0
404.0,425.0,16.0,40.0
404.0,424.0,16.0,40.0
404.0,423.0,16.0,40.0
405.0,423.0,16.0,40.0
405.0,422.0,16.0,40.0
405.0,421.0,16.0,40.0
404.0,421.0,16.0,40.0
404.0,420.0,16.0,40.0
404.0,419.0,16.0,40.0
405.0,419.0,16.0,40.0
405.0,418.0,16.0,40.0
405.0,416.0,16.0,40.0
405.0,415.0,16.0,40.0
405.0,413.0,16.0,40.0
405.0,412.0,16.0,40.0
406.0,412.0,16.0,40.0
406.0,411.0,16.0,40.0
406.0,409.0,16.0,40.0
406.0,408.0,16.0,40.0
406.0,406.0,16.0,40.0
405.0,405.0,16.0,40.0
404.0,404.0,16.0,40.0
403.0,403.0,16.0,40.0
404.0,402.0,16.0,40.0
404.0,401.0,16.0,40.0
405.0,400.0,16.0,40.0
405.0,400.0,16.0,40.0
404.0,399.0,16.0,40.0
404.0,399.0,16.0,40.0
404.0,398.0,16.0,40.0
405.0,397.0,16.0,40.0
405.0,396.0,16.0,40.0
405.0,395.0,16.0,40.0
404.0,393.0,16.0,40.0
404.0,392.0,16.0,40.0
404.0,391.0,16.0,40.0
404.0,390.0,16.0,40.0
404.0,389.0,16.0,40.0
404.0,388.0,16.0,40.0
404.0,387.0,16.0,40.0
404.0,386.0,16.0,40.0
404.0,386.0,16.0,40.0
404.0,385.0,16.0,40.0
404.0,385.0,16.0,40.0
404.0,385.0,16.0,40.0
404.0,385.0,16.0,40.0
404.0,385.0,16.0,40.0
404.0,385.0,16.0,40.0
404.0,384.0,16.0,40.0
404.0,384.0,16.0,40.0
404.0,384.0,16.0,40.0
404.0,384.0,16.0,40.0
404.0,384.0,16.0,40.0
404.0,384.0,16.0,40.0
403.0,383.0,16.0,40.0
403.0,383.0,16.0,40.0
403.0,383.0,16.0,40.0
403.0,382.0,16.0,40.0
403.0,382.0,16.0,40.0
403.0,381.0,16.0,40.0
403.0,381.0,16.0,40.0
403.0,380.0,16.0,40.0
403.0,380.0,16.0,40.0
404.0,380.0,16.0,40.0
404.0,380.0,16.0,40.0
404.0,379.0,16.0,40.0
403.0,379.0,16.0,40.0
403.0,378.0,16.0,40.0
403.0,377.0,16.0,40.0
403.0,377.0,16.0,40.0
403.0,376.0,16.0,40.0
403.0,376.0,16.0,40.0
403.0,376.0,16.0,40.0
403.0,376.0,16.0,40.0
403.0,376.0,16.0,40.0
403.0,376.0,16.0,40.0
403.0,376.0,16.0,40.0
403.0,376.0,16.0,40.0
403.0,376.0,16.0,40.0
403.0,376.0,16.0,40.0
403.0,375.0,16.0,40.0
403.0,375.0,16.0,40.0
403.0,374.0,16.0,40.0
403.0,374.0,16.0,40.0
403.0,374.0,16.0,40.0
403.0,374.0,16.0,40.0
403.0,373.0,16.0,40.0
402.0,373.0,16.0,40.0
402.0,372.0,16.0,40.0
402.0,372.0,16.0,40.0
402.0,371.0,16.0,40.0
402.0,371.0,16.0,40.0
402.0,370.0,16.0,40.0
401.0,368.0,16.0,40.0
401.0,367.0,16.0,40.0
401.0,367.0,16.0,40.0
401.0,367.0,16.0,40.0
401.0,367.0,16.0,40.0
401.0,367.0,16.0,40.0
402.0,366.0,16.0,40.0
402.0,366.0,16.0,40.0
402.0,366.0,16.0,40.0
401.0,365.0,16.0,40.0
401.0,365.0,16.0,40.0
401.0,364.0,16.0,40.0
402.0,364.0,16.0,40.0
402.0,363.0,16.0,40.0
401.0,362.0,16.0,40.0
400.0,362.0,16.0,40.0
399.0,361.0,16.0,40.0
399.0,361.0,16.0,40.0
399.0,361.0,16.0,40.0
399.0,361.0,16.0,40.0
399.0,361.0,16.0,40.0
399.0,360.0,16.0,40.0
399.0,360.0,16.0,40.0
399.0,360.0,16.0,40.0
399.0,360.0,16.0,40.0
399.0,360.0,16.0,40.0
399.0,359.0,16.0,40.0
399.0,358.0,16.0,40.0
399.0,357.0,16.0,40.0
399.0,357.0,16.0,40.0
399.0,356.0,16.0,40.0
399.0,356.0,16.0,40.0
399.0,356.0,16.0,40.0
399.0,356.0,16.0,40.0
399.0,356.0,16.0,40.0
399.0,355.0,16.0,40.0
399.0,355.0,16.0,40.0
399.0,354.0,16.0,40.0
399.0,354.0,16.0,40.0
399.0,354.0,16.0,40.0
399.0,354.0,16.0,40.0
399.0,353.0,16.0,40.0
399.0,353.0,16.0,40.0
399.0,352.0,16.0,40.0
399.0,351.0,16.0,40.0
399.0,351.0,16.0,40.0
399.0,350.0,16.0,40.0
399.0,349.0,16.0,40.0
398.0,349.0,16.0,40.0
398.0,348.0,16.0,40.0
398.0,348.0,16.0,40.0
398.0,348.0,16.0,40.0
398.0,348.0,16.0,40.0
398.0,348.0,16.0,40.0
398.0,348.0,16.0,40.0
398.0,348.0,16.0,40.0
398.0,347.0,16.0,40.0
398.0,346.0,16.0,40.0
398.0,345.0,16.0,40.0
398.0,344.0,16.0,40.0
398.0,343.0,16.0,40.0
398.0,342.0,16.0,40.0
398.0,342.0,16.0,40.0
398.0,342.0,16.0,40.0
398.0,342.0,16.0,40.0
398.0,342.0,16.0,40.0
398.0,342.0,16.0,40.0
398.0,342.0,16.0,40.0
398.0,341.0,16.0,40.0
398.0,341.0,16.0,40.0
398.0,340.0,16.0,40.0
398.0,340.0,16.0,40.0
398.0,340.0,16.0,40.0
398.0,340.0,16.0,40.0
397.0,338.0,16.0,40.0
396.0,337.0,16.0,40.0
395.0,335.0,16.0,40.0
395.0,335.0,16.0,40.0
395.0,335.0,16.0,40.0
395.0,335.0,16.0,40.0
395.0,335.0,16.0,40.0
395.0,335.0,16.0,40.0
395.0,335.0,16.0,40.0
395.0,334.0,16.0,40.0
395.0,333.0,16.0,40.0
395.0,332.0,16.0,40.0
395.0,332.0,16.0,40.0
396.0,331.0,16.0,40.0
396.0,331.0,16.0,40.0
397.0,331.0,16.0,40.0
397.0,330.0,16.0,40.0
398.0,330.0,16.0,40.0
398.0,329.0,16.0,40.0
398.0,328.0,16.0,40.0
398.0,327.0,16.0,40.0
398.0,327.0,16.0,40.0
398.0,327.0,16.0,40.0
398.0,327.0,16.0,40.0
397.0,327.0,16.0,40.0
397.0,326.0,16.0,40.0
396.0,326.0,16.0,40.0
396.0,326.0,16.0,40.0
396.0,326.0,16.0,40.0
396.0,326.0,16.0,40.0
395.0,325.0,16.0,40.0
395.0,324.0,16.0,40.0
394.0,323.0,16.0,40.0
394.0,322.0,16.0,40.0
394.0,322.0,16.0,40.0
394.0,321.0,16.0,40.0
394.0,321.0,16.0,40.0
394.0,321.0,16.0,40.0
394.0,321.0,16.0,40.0
394.0,320.0,16.0,40.0
394.0,320.0,16.0,40.0
394.0,319.0,16.0,40.0
394.0,318.0,16.0,40.0
394.0,318.0,16.0,40.0
394.0,317.0,16.0,40.0
394.0,317.0,16.0,40.0
394.0,316.0,16.0,40.0
394.0,316.0,16.0,40.0
394.0,315.0,16.0,40.0
393.0,315.0,16.0,40.0
393.0,314.0,16.0,40.0
393.0,314.0,16.0,40.0
394.0,314.0,16.0,40.0
394.0,314.0,16.0,40.0
394.0,314.0,16.0,40.0
394.0,314.0,16.0,40.0
394.0,314.0,16.0,40.0
394.0,313.0,16.0,40.0
393.0,312.0,16.0,40.0
393.0,311.0,16.0,40.0
393.0,311.0,16.0,40.0
393.0,310.0,16.0,40.0
393.0,310.0,16.0,40.0
393.0,310.0,16.0,40.0
393.0,310.0,16.0,40.0
393.0,310.0,16.0,40.0
393.0,309.0,16.0,40.0
393.0,308.0,16.0,40.0
393.0,307.0,16.0,40.0
393.0,306.0,16.0,40.0
393.0,305.0,16.0,40.0
393.0,304.0,16.0,40.0
393.0,304.0,16.0,40.0
393.0,304.0,16.0,40.0
393.0,304.0,16.0,40.0
393.0,304.0,16.0,40.0
393.0,304.0,16.0,40.0
393.0,304.0,16.0,40.0
393.0,304.0,16.0,40.0
393.0,304.0,16.0,40.0
393.0,304.0,16.0,40.0
393.0,304.0,16.0,40.0
393.0,303.0,16.0,40.0
393.0,303.0,16.0,40.0
393.0,302.0,16.0,40.0
392.0,302.0,16.0,40.0
392.0,301.0,16.0,40.0
392.0,300.0,16.0,40.0
391.0,300.0,16.0,40.0
391.0,299.0,16.0,40.0
391.0,299.0,16.0,40.0
391.0,299.0,16.0,40.0
391.0,299.0,16.0,40.0
391.0,299.0,16.0,40.0
392.0,298.0,16.0,40.0
392.0,298.0,16.0,40.0
392.0,297.0,16.0,40.0
392.0,297.0,16.0,40.0
392.0,296.0,16.0,40.0
392.0,296.0,16.0,40.0
391.0,296.0,16.0,40.0
391.0,296.0,16.0,40.0
390.0,295.0,16.0,40.0
390.0,295.0,16.0,40.0
389.0,294.0,16.0,40.0
389.0,293.0,16.0,40.0
388.0,292.0,16.0,40.0
388.0,291.0,16.0,40.0
388.0,291.0,16.0,40.0
388.0,291.0,16.0,40.0
388.0,291.0,16.0,40.0
388.0,291.0,16.0,40.0
388.0,290.0,16.0,40.0
388.0,290.0,16.0,40.0
388.0,290.0,16.0,40.0
388.0,290.0,16.0,40.0
388.0,290.0,16.0,40.0
388.0,289.0,16.0,40.0
388.0,287.0,16.0,40.0
388.0,286.0,16.0,40.0
388.0,286.0,16.0,40.0
388.0,286.0,16.0,40.0
388.0,286.0,16.0,40.0
387.0,285.0,16.0,40.0
385.0,285.0,16.0,40.0
384.0,284.0,16.0,40.0
384.0,284.0,16.0,40.0
384.0,284.0,16.0,40.0
384.0,284.0,16.0,40.0
384.0,283.0,16.0,40.0
384.0,282.0,16.0,40.0
384.0,281.0,16.0,40.0
384.0,281.0,16.0,40.0
383.0,280.0,16.0,40.0
383.0,280.0,16.0,40.0
383.0,280.0,16.0,40.0
383.0,280.0,16.0,40.0
383.0,280.0,16.0,40.0
383.0,279.0,16.0,40.0
383.0,278.0,16.0,40.0
383.0,277.0,16.0,40.0
383.0,277.0,16.0,40.0
383.0,276.0,16.0,40.0
383.0,276.0,16.0,40.0
383.0,275.0,16.0,40.0
383.0,274.0,16.0,40.0
383.0,273.0,16.0,40.0
383.0,272.0,16.0,40.0
382.0,272.0,16.0,40.0
382.0,271.0,16.0,40.0
382.0,271.0,16.0,40.0
382.0,270.0,16.0,40.0
382.0,270.0,16.0,40.0
382.0,270.0,16.0,40.0
382.0,269.0,16.0,40.0
382.0,269.0,16.0,40.0
382.0,269.0,16.0,40.0
382.0,269.0,16.0,40.0
382.0,269.0,16.0,40.0
381.0,268.0,16.0,40.0
381.0,267.0,16.0,40.0
380.0,266.0,16.0,40.0
380.0,265.0,16.0,40.0
379.0,265.0,16.0,40.0
379.0,264.0,16.0,40.0
379.0,263.0,16.0,40.0
380.0,262.0,16.0,40.0
380.0,261.0,16.0,40.0
380.0,261.0,16.0,40.0
379.0,260.0,16.0,40.0
379.0,260.0,16.0,40.0
380.0,259.0,16.0,40.0
380.0,259.0,16.0,40.0
381.0,258.0,16.0,40.0
380.0,258.0,16.0,40.0
380.0,257.0,16.0,40.0
379.0,257.0,16.0,40.0
379.0,256.0,16.0,40.0
379.0,255.0,16.0,40.0
379.0,254.0,16.0,40.0
379.0,253.0,16.0,40.0
379.0,253.0,16.0,40.0
379.0,252.0,16.0,40.0
379.0,252.0,16.0,40.0
378.0,251.0,16.0,40.0
378.0,251.0,16.0,40.0
378.0,251.0,16.0,40.0
378.0,251.0,16.0,40.0
378.0,251.0,16.0,40.0
378.0,250.0,16.0,40.0
378.0,249.0,16.0,40.0
378.0,248.0,16.0,40.0
378.0,247.0,16.0,40.0
378.0,247.0,16.0,40.0
378.0,246.0,16.0,40.0
378.0,245.0,16.0,40.0
378.0,244.0,16.0,40.0
378.0,243.0,16.0,40.0
378.0,242.0,16.0,40.0
378.0,242.0,16.0,40.0
378.0,241.0,16.0,40.0
377.0,241.0,16.0,40.0
377.0,241.0,16.0,40.0
376.0,241.0,16.0,40.0
376.0,240.0,16.0,40.0
375.0,239.0,16.0,40.0
375.0,238.0,16.0,40.0
375.0,237.0,16.0,40.0
375.0,236.0,16.0,40.0
375.0,235.0,16.0,40.0
375.0,234.0,16.0,40.0
375.0,233.0,16.0,40.0
375.0,232.0,16.0,40.0
375.0,232.0,16.0,40.0
375.0,232.0,16.0,40.0
375.0,232.0,16.0,40.0
375.0,231.0,16.0,40.0
375.0,231.0,16.0,40.0
375.0,230.0,16.0,40.0
374.0,229.0,16.0,40.0
374.0,228.0,16.0,40.0
373.0,227.0,16.0,40.0
373.0,227.0,16.0,40.0
373.0,227.0,16.0,40.0
373.0,227.0,16.0,40.0
373.0,226.0,16.0,40.0
373.0,226.0,16.0,40.0
373.0,225.0,16.0,40.0
373.0,224.0,16.0,40.0
373.0,224.0,16.0,40.0
373.0,223.0,16.0,40.0
373.0,222.0,16.0,40.0
373.0,220.0,16.0,40.0
373.0,219.0,16.0,40.0
373.0,219.0,16.0,40.0
373.0,219.0,16.0,40.0
373.0,219.0,16.0,40.0
372.0,218.0,16.0,40.0
372.0,218.0,16.0,39.0
371.0,217.0,16.0,39.0
371.0,215.0,16.0,39.0
371.0,214.0,16.0,39.0
371.0,212.0,16.0,39.0
370.0,212.0,16.0,39.0
370.0,211.0,16.0,39.0
369.0,211.0,16.0,39.0
369.0,210.0,16.0,39.0
369.0,209.0,16.0,39.0
369.0,208.0,16.0,39.0
369.0,208.0,16.0,39.0
369.0,208.0,16.0,39.0
369.0,208.0,16.0,39.0
369.0,206.0,16.0,39.0
369.0,205.0,16.0,39.0
369.0,203.0,16.0,39.0
369.0,203.0,16.0,39.0
369.0,203.0,16.0,39.0
369.0,203.0,16.0,39.0
369.0,202.0,16.0,39.0
368.0,202.0,16.0,39.0
368.0,201.0,16.0,39.0
368.0,199.0,16.0,39.0
367.0,198.0,16.0,39.0
367.0,196.0,16.0,39.0
367.0,196.0,16.0,39.0
368.0,196.0,16.0,39.0
368.0,196.0,16.0,39.0
368.0,195.0,16.0,39.0
368.0,195.0,16.0,39.0
368.0,194.0,16.0,39.0
368.0,193.0,16.0,39.0
367.0,192.0,16.0,39.0
367.0,191.0,16.0,39.0
366.0,191.0,16.0,39.0
366.0,190.0,16.0,39.0
365.0,190.0,16.0,39.0
365.0,189.0,16.0,39.0
366.0,187.0,16.0,39.0
366.0,186.0,16.0,39.0
366.0,186.0,16.0,39.0
366.0,185.0,16.0,39.0
366.0,185.0,16.0,39.0
366.0,184.0,16.0,39.0
365.0,182.0,16.0,39.0
365.0,181.0,16.0,39.0
365.0,180.0,16.0,39.0
364.0,179.0,16.0,39.0
364.0,178.0,16.0,39.0
364.0,177.0,16.0,39.0
364.0,177.0,16.0,39.0
364.0,176.0,16.0,39.0
364.0,175.0,16.0,39.0
364.0,174.0,16.0,39.0
364.0,173.0,16.0,39.0
364.0,173.0,16.0,39.0
363.0,174.0,16.0,39.0
363.0,174.0,16.0,39.0
363.0,174.0,16.0,39.0
363.0,174.0,16.0,39.0
363.0,174.0,16.0,39.0
363.0,176.0,16.0,39.0
363.0,179.0,16.0,38.0
363.0,181.0,16.0,38.0
363.0,183.0,16.0,38.0
363.0,185.0,16.0,37.0
363.0,187.0,16.0,37.0
363.0,189.0,16.0,37.0
363.0,190.0,16.0,37.0
363.0,192.0,16.0,37.0
363.0,194.0,16.0,37.0
363.0,195.0,16.0,37.0
363.0,197.0,16.0,37.0
363.0,200.0,16.0,37.0
364.0,203.0,16.0,37.0
364.0,206.0,16.0,37.0
364.0,208.0,16.0,37.0
364.0,210.0,16.0,37.0
364.0,212.0,16.0,37.0
364.0,214.0,16.0,37.0
364.0,215.0,16.0,37.0
364.0,217.0,16.0,37.0
364.0,218.0,16.0,37.0
363.0,220.0,16.0,37.0
363.0,221.0,16.0,37.0
363.0,223.0,16.0,37.0
363.0,224.0,16.0,37.0
363.0,226.0,16.0,37.0
363.0,228.0,16.0,37.0
363.0,230.0,16.0,37.0
363.0,232.0,16.0,37.0
363.0,233.0,16.0,37.0
363.0,233.0,16.0,37.0
363.0,234.0,16.0,37.0
363.0,236.0,16.0,37.0
363.0,238.0,16.0,37.0
363.0,240.0,16.0,37.0
363.0,243.0,16.0,37.0
363.0,245.0,16.0,37.0
363.0,248.0,16.0,37.0
363.0,249.0,16.0,37.0
363.0,249.0,16.0,37.0
363.0,250.0,16.0,37.0
363.0,252.0,16.0,37.0
363.0,254.0,16.0,37.0
363.0,256.0,16.0,37.0
363.0,258.0,16.0,37.0
363.0,259.0,16.0,37.0
363.0,261.0,16.0,37.0
363.0,262.0,16.0,37.0
363.0,264.0,16.0,37.0
363.0,265.0,16.0,37.0
363.0,266.0,16.0,37.0
363.0,268.0,16.0,36.0
363.0,269.0,16.0,36.0
363.0,270.0,17.0,36.0
362.0,272.0,17.0,37.0
362.0,273.0,18.0,37.0
362.0,275.0,17.0,37.0
363.0,277.0,17.0,36.0
363.0,279.0,16.0,36.0
363.0,280.0,16.0,36.0
363.0,282.0,16.0,36.0
363.0,283.0,16.0,36.0
363.0,285.0,16.0,36.0
363.0,287.0,17.0,36.0
363.0,289.0,17.0,36.0
363.0,291.0,17.0,36.0
363.0,292.0,16.0,35.0
363.0,294.0,16.0,35.0
363.0,295.0,16.0,35.0
362.0,296.0,17.0,36.0
362.0,297.0,17.0,36.0
362.0,299.0,17.0,36.0
362.0,301.0,16.0,35.0
362.0,303.0,16.0,35.0
362.0,304.0,16.0,35.0
362.0,305.0,17.0,36.0
362.0,306.0,17.0,36.0
362.0,308.0,17.0,36.0
362.0,309.0,16.0,37.0
362.0,311.0,16.0,37.0
362.0,313.0,16.0,37.0
362.0,315.0,16.0,36.0
362.0,317.0,16.0,36.0
362.0,318.0,16.0,36.0
362.0,320.0,17.0,35.0
362.0,321.0,17.0,35.0
362.0,323.0,17.0,34.0
362.0,326.0,16.0,34.0
362.0,328.0,16.0,33.0
362.0,329.0,16.0,33.0
362.0,331.0,16.0,34.0
362.0,332.0,16.0,34.0
362.0,333.0,16.0,34.0
362.0,335.0,16.0,34.0
362.0,336.0,16.0,34.0
362.0,338.0,16.0,34.0
362.0,339.0,16.0,35.0
362.0,341.0,16.0,35.0
362.0,343.0,16.0,34.0
362.0,344.0,16.0,34.0
362.0,346.0,16.0,33.0
362.0,348.0,16.0,33.0
362.0,349.0,16.0,33.0
362.0,351.0,16.0,33.0
362.0,353.0,16.0,33.0
361.0,354.0,16.0,33.0
361.0,356.0,16.0,33.0
361.0,357.0,16.0,33.0
360.0,359.0,16.0,33.0
360.0,360.0,16.0,33.0
361.0,362.0,16.0,33.0
361.0,364.0,16.0,33.0
362.0,366.0,16.0,33.0
362.0,368.0,16.0,33.0
361.0,370.0,16.0,33.0
361.0,372.0,16.0,33.0
360.0,373.0,16.0,33.0
360.0,375.0,16.0,33.0
359.0,376.0,16.0,33.0
359.0,378.0,16.0,33.0
359.0,379.0,16.0,33.0
359.0,381.0,16.0,33.0
360.0,382.0,16.0,33.0
360.0,383.0,16.0,33.0
361.0,384.0,16.0,33.0
360.0,386.0,16.0,33.0
360.0,387.0,16.0,33.0
359.0,389.0,16.0,33.0
360.0,389.0,16.0,33.0
360.0,390.0,16.0,33.0
361.0,390.0,16.0,33.0
361.0,390.0,16.0,33.0
360.0,391.0,16.0,33.0
360.0,391.0,16.0,33.0
360.0,390.0,16.0,33.0
361.0,389.0,16.0,33.0
361.0,388.0,16.0,33.0
362.0,387.0,16.0,33.0
363.0,385.0,16.0,33.0
364.0,384.0,16.0,33.0
366.0,383.0,16.0,33.0
367.0,381.0,16.0,33.0
369.0,380.0,16.0,33.0
371.0,378.0,16.0,33.0
373.0,375.0,16.0,33.0
375.0,373.0,16.0,33.0
378.0,372.0,16.0,33.0
380.0,371.0,16.0,33.0
383.0,370.0,16.0,33.0
385.0,368.0,16.0,33.0
388.0,366.0,16.0,33.0
390.0,364.0,16.0,33.0
393.0,362.0,15.0,33.0
395.0,360.0,15.0,33.0
398.0,358.0,14.0,33.0
401.0,357.0,14.0,33.0
403.0,356.0,14.0,33.0
406.0,355.0,14.0,33.0
408.0,353.0,15.0,33.0
411.0,352.0,15.0,33.0
413.0,350.0,16.0,33.0
415.0,349.0,16.0,33.0
416.0,348.0,16.0,33.0
418.0,347.0,16.0,33.0
419.0,345.0,16.0,33.0
420.0,344.0,16.0,33.0
421.0,342.0,16.0,33.0
422.0,341.0,16.0,33.0
422.0,341.0,16.0,33.0
423.0,340.0,16.0,33.0
423.0,338.0,16.0,33.0
423.0,337.0,16.0,33.0
423.0,335.0,16.0,33.0
423.0,335.0,16.0,33.0
423.0,335.0,16.0,33.0
423.0,335.0,16.0,33.0
423.0,334.0,16.0,33.0
423.0,332.0,16.0,33.0
423.0,331.0,16.0,33.0
423.0,331.0,17.0,32.0
422.0,330.0,17.0,31.0
422.0,330.0,18.0,30.0
422.0,329.0,18.0,30.0
421.0,329.0,18.0,30.0
421.0,328.0,18.0,30.0
421.0,327.0,18.0,30.0
422.0,326.0,18.0,30.0
422.0,325.0,18.0,30.0
422.0,324.0,18.0,30.0
422.0,323.0,18.0,30.0
422.0,322.0,18.0,30.0
422.0,322.0,18.0,30.0
422.0,321.0,18.0,30.0
422.0,321.0,18.0,30.0
422.0,321.0,18.0,30.0
422.0,320.0,18.0,30.0
422.0,320.0,18.0,30.0
422.0,319.0,18.0,30.0
422.0,317.0,18.0,30.0
422.0,316.0,18.0,30.0
422.0,316.0,18.0,30.0
422.0,315.0,17.0,30.0
422.0,315.0,17.0,30.0
422.0,315.0,17.0,30.0
422.0,315.0,17.0,30.0
422.0,315.0,17.0,30.0
422.0,313.0,17.0,30.0
423.0,312.0,17.0,30.0
423.0,310.0,17.0,30.0
423.0,309.0,17.0,30.0
423.0,308.0,17.0,30.0
423.0,307.0,17.0,30.0
423.0,306.0,17.0,30.0
422.0,306.0,17.0,30.0
422.0,305.0,17.0,30.0
422.0,304.0,17.0,30.0
423.0,302.0,17.0,30.0
423.0,301.0,17.0,30.0
423.0,301.0,17.0,30.0
423.0,300.0,17.0,30.0
423.0,300.0,17.0,30.0
423.0,299.0,17.0,30.0
423.0,299.0,17.0,30.0
423.0,298.0,17.0,30.0
423.0,297.0,17.0,30.0
423.0,297.0,17.0,30.0
423.0,296.0,17.0,30.0
423.0,295.0,17.0,30.0
423.0,295.0,17.0,30.0
423.0,294.0,17.0,30.0
423.0,294.0,17.0,30.0
423.0,294.0,17.0,30.0
423.0,294.0,17.0,30.0
423.0,293.0,17.0,30.0
423.0,291.0,17.0,30.0
423.0,290.0,17.0,30.0
423.0,289.0,17.0,30.0
423.0,289.0,17.0,30.0
423.0,288.0,17.0,30.0
423.0,287.0,17.0,30.0
423.0,286.0,17.0,30.0
423.0,285.0,17.0,30.0
423.0,285.0,17.0,30.0
423.0,285.0,17.0,30.0
423.0,285.0,17.0,30.0
423.0,284.0,17.0,30.0
423.0,283.0,17.0,30.0
423.0,282.0,17.0,30.0
423.0,282.0,17.0,30.0
423.0,282.0,17.0,30.0
423.0,282.0,17.0,30.0
423.0,283.0,17.0,30.0
423.0,283.0,17.0,30.0
423.0,284.0,17.0,30.0
423.0,284.0,17.0,30.0
423.0,284.0,17.0,30.0
423.0,284.0,17.0,30.0
423.0,283.0,17.0,30.0
423.0,283.0,17.0,30.0
423.0,282.0,17.0,30.0
423.0,283.0,17.0,30.0
422.0,284.0,17.0,30.0
422.0,285.0,17.0,30.0
422.0,285.0,17.0,30.0
423.0,285.0,17.0,30.0
423.0,285.0,17.0,30.0
423.0,285.0,17.0,30.0
423.0,285.0,17.0,30.0
423.0,285.0,17.0,30.0
423.0,285.0,17.0,30.0
423.0,285.0,17.0,30.0
423.0,285.0,17.0,30.0
423.0,285.0,17.0,30.0
423.0,285.0,17.0,30.0
423.0,285.0,17.0,30.0
423.0,285.0,17.0,30.0
423.0,285.0,17.0,30.0
423.0,285.0,17.0,30.0
423.0,285.0,17.0,30.0
423.0,285.0,17.0,30.0
423.0,285.0,17.0,30.0
423.0,286.0,17.0,30.0
423.0,286.0,17.0,30.0
423.0,287.0,17.0,30.0
423.0,288.0,17.0,30.0
423.0,289.0,17.0,30.0
423.0,290.0,17.0,30.0
423.0,290.0,17.0,30.0
423.0,290.0,17.0,30.0
423.0,290.0,17.0,30.0
423.0,291.0,17.0,30.0
423.0,291.0,18.0,30.0
423.0,292.0,18.0,30.0
423.0,292.0,18.0,30.0
423.0,292.0,18.0,30.0
423.0,292.0,18.0,30.0
423.0,291.0,18.0,30.0
423.0,291.0,18.0,30.0
423.0,290.0,18.0,30.0
423.0,290.0,18.0,29.0
423.0,289.0,18.0,29.0
423.0,289.0,18.0,28.0
423.0,288.0,18.0,28.0
423.0,286.0,18.0,28.0
423.0,285.0,18.0,28.0
423.0,285.0,18.0,28.0
423.0,285.0,18.0,28.0
423.0,285.0,18.0,28.0
423.0,285.0,18.0,28.0
423.0,284.0,18.0,28.0
423.0,284.0,18.0,28.0
423.0,283.0,18.0,28.0
424.0,281.0,18.0,28.0
424.0,280.0,18.0,28.0
424.0,280.0,18.0,28.0
423.0,280.0,18.0,28.0
423.0,280.0,18.0,28.0
423.0,279.0,18.0,28.0
423.0,279.0,18.0,28.0
423.0,278.0,18.0,28.0
423.0,278.0,17.0,27.0
424.0,277.0,17.0,27.0
424.0,277.0,16.0,26.0
424.0,277.0,16.0,26.0
424.0,277.0,16.0,26.0
424.0,277.0,16.0,26.0
424.0,278.0,16.0,26.0
424.0,279.0,16.0,26.0
424.0,280.0,16.0,26.0
424.0,282.0,16.0,26.0
424.0,283.0,16.0,26.0
424.0,285.0,16.0,26.0
424.0,287.0,16.0,26.0
423.0,290.0,16.0,26.0
423.0,292.0,16.0,26.0
423.0,295.0,16.0,26.0
423.0,299.0,16.0,26.0
423.0,302.0,16.0,26.0
423.0,303.0,16.0,26.0
423.0,304.0,16.0,26.0
423.0,305.0,16.0,26.0
423.0,308.0,16.0,26.0
423.0,311.0,16.0,26.0
423.0,314.0,16.0,26.0
423.0,315.0,16.0,26.0
422.0,315.0,16.0,26.0
422.0,316.0,16.0,26.0
422.0,318.0,16.0,26.0
422.0,319.0,16.0,26.0
422.0,321.0,16.0,26.0
422.0,321.0,16.0,26.0
422.0,322.0,16.0,26.0
422.0,322.0,16.0,26.0
422.0,323.0,16.0,26.0
423.0,325.0,16.0,26.0
423.0,326.0,16.0,26.0
423.0,327.0,16.0,26.0
422.0,327.0,16.0,26.0
422.0,328.0,16.0,26.0
422.0,328.0,16.0,26.0
422.0,328.0,16.0,26.0
422.0,328.0,16.0,26.0
422.0,327.0,16.0,26.0
422.0,327.0,16.0,26.0
422.0,326.0,16.0,26.0
422.0,326.0,16.0,26.0
422.0,326.0,16.0,26.0
422.0,326.0,16.0,26.0
422.0,326.0,16.0,26.0
422.0,326.0,16.0,26.0
422.0,326.0,16.0,26.0
422.0,326.0,16.0,26.0
422.0,326.0,16.0,26.0
422.0,326.0,16.0,26.0
422.0,326.0,16.0,26.0
422.0,326.0,16.0,26.0
422.0,326.0,16.0,26.0
422.0,327.0,16.0,26.0
422.0,328.0,16.0,26.0
422.0,329.0,16.0,26.0
422.0,330.0,16.0,27.0
421.0,332.0,16.0,27.0
421.0,333.0,16.0,28.0
421.0,334.0,16.0,28.0
422.0,335.0,16.0,28.0
422.0,336.0,16.0,28.0
422.0,337.0,16.0,28.0
421.0,337.0,16.0,28.0
421.0,338.0,16.0,28.0
421.0,339.0,16.0,28.0
420.0,340.0,16.0,28.0
420.0,341.0,16.0,28.0
421.0,342.0,16.0,28.0
421.0,342.0,15.0,27.0
422.0,343.0,15.0,27.0
422.0,344.0,15.0,27.0
421.0,345.0,16.0,28.0
421.0,346.0,16.0,28.0
421.0,347.0,16.0,27.0
420.0,347.0,17.0,27.0
420.0,348.0,17.0,26.0
420.0,349.0,17.0,26.0
420.0,351.0,17.0,26.0
420.0,352.0,17.0,26.0
420.0,353.0,17.0,26.0
420.0,354.0,17.0,26.0
420.0,355.0,17.0,26.0
420.0,355.0,17.0,26.0
421.0,355.0,17.0,26.0
421.0,355.0,17.0,26.0
421.0,356.0,17.0,26.0
420.0,356.0,17.0,26.0
420.0,357.0,17.0,26.0
420.0,358.0,17.0,26.0
421.0,358.0,17.0,26.0
421.0,359.0,17.0,26.0
420.0,360.0,17.0,26.0
419.0,361.0,17.0,26.0
418.0,362.0,17.0,26.0
419.0,362.0,17.0,26.0
420.0,363.0,17.0,26.0
421.0,363.0,17.0,26.0
421.0,364.0,17.0,27.0
421.0,365.0,16.0,27.0
421.0,366.0,16.0,28.0
421.0,367.0,16.0,27.0
420.0,367.0,17.0,27.0
420.0,368.0,17.0,26.0
420.0,369.0,17.0,26.0
421.0,369.0,17.0,26.0
421.0,370.0,17.0,26.0
421.0,371.0,17.0,26.0
420.0,373.0,17.0,26.0
420.0,374.0,17.0,26.0
420.0,374.0,17.0,26.0
421.0,374.0,17.0,26.0
421.0,374.0,17.0,26.0
421.0,375.0,17.0,26.0
420.0,376.0,17.0,26.0
420.0,377.0,17.0,26.0
421.0,378.0,16.0,26.0
421.0,378.0,15.0,26.0
422.0,379.0,14.0,26.0
422.0,380.0,15.0,26.0
421.0,380.0,15.0,26.0
421.0,381.0,16.0,26.0
421.0,381.0,16.0,25.0
422.0,382.0,15.0,25.0
422.0,382.0,15.0,24.0
422.0,383.0,15.0,24.0
422.0,385.0,15.0,24.0
422.0,386.0,15.0,24.0
422.0,387.0,15.0,24.0
422.0,388.0,15.0,24.0
422.0,389.0,15.0,24.0
422.0,389.0,15.0,24.0
423.0,390.0,15.0,24.0
423.0,390.0,15.0,24.0
423.0,390.0,15.0,24.0
423.0,390.0,15.0,24.0
423.0,390.0,15.0,24.0
423.0,391.0,15.0,24.0
423.0,392.0,15.0,24.0
423.0,393.0,15.0,24.0
423.0,393.0,15.0,24.0
423.0,393.0,15.0,24.0
423.0,393.0,15.0,24.0
423.0,393.0,15.0,24.0
423.0,393.0,15.0,24.0
423.0,393.0,15.0,24.0
423.0,393.0,15.0,24.0
423.0,393.0,15.0,24.0
423.0,393.0,15.0,24.0
423.0,393.0,15.0,25.0
422.0,393.0,16.0,27.0
422.0,393.0,16.0,28.0
422.0,394.0,16.0,27.0
423.0,396.0,15.0,25.0
423.0,397.0,15.0,24.0
423.0,398.0,15.0,24.0
423.0,398.0,15.0,24.0
423.0,399.0,15.0,24.0
423.0,399.0,15.0,24.0
423.0,399.0,15.0,24.0
423.0,399.0,15.0,24.0
423.0,399.0,15.0,24.0
423.0,399.0,15.0,24.0
423.0,399.0,15.0,24.0
423.0,400.0,15.0,24.0
423.0,401.0,15.0,24.0
423.0,402.0,15.0,24.0
423.0,403.0,15.0,24.0
422.0,403.0,15.0,24.0
422.0,404.0,15.0,24.0
422.0,405.0,15.0,24.0
422.0,405.0,15.0,24.0
422.0,406.0,15.0,24.0
422.0,406.0,15.0,24.0
422.0,406.0,15.0,24.0
422.0,406.0,15.0,24.0
422.0,406.0,15.0,24.0
421.0,407.0,15.0,24.0
421.0,407.0,15.0,24.0
421.0,408.0,15.0,24.0
421.0,409.0,15.0,24.0
421.0,410.0,15.0,24.0
421.0,411.0,15.0,24.0
420.0,411.0,15.0,24.0
420.0,412.0,15.0,24.0
420.0,412.0,15.0,24.0
420.0,412.0,15.0,24.0
420.0,412.0,15.0,24.0
420.0,412.0,15.0,24.0
420.0,412.0,15.0,24.0
420.0,412.0,15.0,24.0
420.0,412.0,15.0,24.0
419.0,413.0,15.0,24.0
419.0,413.0,15.0,24.0
419.0,413.0,15.0,24.0
419.0,413.0,15.0,24.0
419.0,413.0,15.0,24.0
419.0,414.0,15.0,24.0
420.0,415.0,15.0,24.0
420.0,416.0,15.0,24.0
420.0,416.0,15.0,24.0
420.0,416.0,15.0,24.0
420.0,416.0,15.0,24.0
421.0,416.0,15.0,24.0
421.0,417.0,15.0,24.0
422.0,417.0,15.0,24.0
422.0,418.0,15.0,24.0
422.0,418.0,15.0,24.0
422.0,419.0,15.0,24.0
422.0,419.0,15.0,24.0
422.0,419.0,15.0,24.0
422.0,419.0,15.0,24.0
422.0,419.0,15.0,24.0
422.0,419.0,15.0,24.0
422.0,419.0,15.0,24.0
422.0,420.0,15.0,24.0
422.0,420.0,15.0,24.0
422.0,421.0,15.0,24.0
422.0,422.0,15.0,24.0
422.0,423.0,15.0,24.0
422.0,424.0,15.0,24.0
422.0,424.0,15.0,24.0
422.0,424.0,15.0,24.0
422.0,424.0,15.0,24.0
422.0,424.0,15.0,24.0
422.0,424.0,15.0,24.0
422.0,424.0,15.0,24.0
422.0,424.0,15.0,24.0
422.0,424.0,15.0,24.0
422.0,424.0,15.0,24.0
422.0,424.0,15.0,24.0
422.0,424.0,15.0,24.0
422.0,424.0,15.0,24.0
422.0,423.0,15.0,24.0
422.0,423.0,15.0,24.0
422.0,422.0,15.0,24.0
422.0,422.0,15.0,24.0
422.0,422.0,15.0,24.0
422.0,422.0,15.0,24.0
422.0,422.0,15.0,24.0
422.0,422.0,15.0,24.0
422.0,422.0,15.0,24.0
422.0,421.0,15.0,25.0
422.0,421.0,15.0,25.0
422.0,420.0,15.0,26.0
422.0,420.0,15.0,26.0
422.0,420.0,15.0,26.0
422.0,420.0,15.0,26.0
422.0,420.0,15.0,26.0
422.0,419.0,15.0,26.0
422.0,419.0,15.0,26.0
421.0,419.0,15.0,26.0
421.0,418.0,15.0,26.0
420.0,418.0,15.0,26.0
420.0,418.0,15.0,26.0
420.0,417.0,15.0,26.0
420.0,417.0,15.0,26.0
420.0,417.0,15.0,26.0
420.0,417.0,15.0,26.0
420.0,417.0,15.0,26.0
420.0,417.0,15.0,26.0
420.0,418.0,15.0,26.0
420.0,418.0,15.0,26.0
419.0,418.0,15.0,26.0
419.0,417.0,15.0,26.0
418.0,417.0,15.0,26.0
418.0,417.0,15.0,26.0
418.0,417.0,15.0,26.0
418.0,417.0,15.0,26.0
418.0,417.0,15.0,26.0
418.0,417.0,15.0,26.0
418.0,417.0,15.0,26.0
418.0,417.0,15.0,26.0
418.0,417.0,15.0,26.0
418.0,417.0,15.0,26.0
418.0,417.0,15.0,26.0
418.0,417.0,15.0,26.0
418.0,417.0,15.0,26.0
417.0,417.0,15.0,26.0
417.0,417.0,15.0,26.0
416.0,417.0,15.0,26.0
416.0,417.0,15.0,26.0
416.0,416.0,15.0,26.0
416.0,416.0,15.0,26.0
416.0,416.0,15.0,26.0
416.0,416.0,15.0,26.0
416.0,416.0,15.0,26.0
416.0,416.0,15.0,26.0
416.0,415.0,15.0,26.0
416.0,415.0,15.0,26.0
416.0,415.0,15.0,26.0
416.0,415.0,15.0,26.0
416.0,415.0,15.0,26.0
416.0,415.0,15.0,26.0
416.0,415.0,15.0,26.0
416.0,415.0,15.0,26.0
416.0,415.0,15.0,26.0
416.0,415.0,15.0,26.0
416.0,415.0,15.0,26.0
416.0,415.0,15.0,26.0
416.0,415.0,15.0,26.0
416.0,415.0,15.0,26.0
416.0,415.0,15.0,26.0
416.0,415.0,15.0,26.0
416.0,415.0,15.0,26.0
416.0,415.0,15.0,26.0
416.0,415.0,15.0,26.0
416.0,415.0,15.0,26.0
416.0,415.0,15.0,26.0
416.0,415.0,15.0,26.0
416.0,415.0,15.0,26.0
416.0,415.0,15.0,26.0
416.0,415.0,15.0,26.0
416.0,415.0,15.0,26.0
416.0,415.0,15.0,26.0
416.0,415.0,15.0,26.0
416.0,415.0,15.0,26.0
416.0,414.0,15.0,27.0
416.0,414.0,15.0,27.0
416.0,413.0,15.0,28.0
416.0,413.0,15.0,28.0
416.0,413.0,15.0,28.0
416.0,413.0,15.0,28.0
416.0,413.0,15.0,28.0
416.0,413.0,15.0,28.0
416.0,413.0,15.0,28.0
416.0,413.0,15.0,28.0
416.0,413.0,15.0,28.0
416.0,413.0,15.0,28.0
416.0,413.0,15.0,28.0
416.0,413.0,15.0,28.0
416.0,413.0,15.0,28.0
415.0,413.0,15.0,28.0
414.0,414.0,15.0,28.0
413.0,414.0,15.0,28.0
413.0,414.0,15.0,28.0
413.0,414.0,15.0,28.0
413.0,414.0,15.0,28.0
413.0,414.0,15.0,28.0
413.0,414.0,15.0,28.0
413.0,414.0,15.0,28.0
413.0,414.0,15.0,28.0
413.0,414.0,15.0,28.0
413.0,414.0,15.0,28.0
412.0,414.0,16.0,28.0
412.0,414.0,16.0,28.0
411.0,414.0,17.0,28.0
411.0,414.0,17.0,28.0
411.0,414.0,17.0,28.0
411.0,414.0,17.0,28.0
410.0,414.0,17.0,28.0
410.0,414.0,17.0,28.0
409.0,414.0,17.0,28.0
409.0,414.0,17.0,28.0
408.0,415.0,17.0,28.0
408.0,415.0,17.0,28.0
408.0,415.0,17.0,28.0
408.0,415.0,17.0,28.0
408.0,415.0,17.0,28.0
408.0,415.0,17.0,28.0
408.0,415.0,17.0,28.0
408.0,415.0,17.0,28.0
408.0,415.0,17.0,28.0
408.0,415.0,17.0,28.0
408.0,415.0,17.0,28.0
408.0,415.0,17.0,28.0
408.0,415.0,17.0,28.0
408.0,415.0,17.0,28.0
408.0,415.0,17.0,28.0
408.0,415.0,17.0,28.0
408.0,415.0,17.0,28.0
408.0,415.0,17.0,28.0
408.0,415.0,17.0,28.0
408.0,415.0,17.0,28.0
408.0,415.0,17.0,28.0
408.0,415.0,17.0,28.0
408.0,415.0,17.0,28.0
408.0,415.0,17.0,28.0
407.0,416.0,17.0,28.0
407.0,416.0,17.0,28.0
407.0,416.0,17.0,28.0
407.0,416.0,17.0,28.0
407.0,416.0,17.0,28.0
407.0,417.0,17.0,27.0
406.0,417.0,18.0,26.0
406.0,418.0,18.0,25.0
405.0,418.0,18.0,25.0
404.0,419.0,18.0,25.0
403.0,419.0,18.0,25.0
403.0,419.0,18.0,25.0
403.0,419.0,18.0,25.0
403.0,419.0,18.0,25.0
403.0,420.0,18.0,25.0
402.0,420.0,18.0,25.0
402.0,421.0,18.0,25.0
402.0,421.0,18.0,25.0
402.0,421.0,18.0,25.0
402.0,421.0,18.0,25.0
402.0,421.0,18.0,25.0
402.0,421.0,18.0,25.0
402.0,421.0,18.0,25.0
402.0,421.0,18.0,25.0
402.0,421.0,18.0,25.0
402.0,421.0,18.0,25.0
402.0,421.0,18.0,25.0
401.0,422.0,18.0,25.0
401.0,422.0,18.0,25.0
400.0,422.0,18.0,25.0
400.0,422.0,18.0,26.0
399.0,422.0,18.0,26.0
399.0,422.0,18.0,27.0
399.0,421.0,18.0,27.0
399.0,421.0,18.0,28.0
399.0,421.0,18.0,28.0
399.0,421.0,18.0,28.0
399.0,421.0,18.0,28.0
398.0,421.0,18.0,28.0
398.0,422.0,18.0,28.0
397.0,422.0,18.0,28.0
397.0,422.0,18.0,28.0
397.0,422.0,18.0,28.0
397.0,422.0,18.0,28.0
397.0,422.0,18.0,28.0
396.0,423.0,18.0,28.0
396.0,423.0,18.0,28.0
396.0,423.0,18.0,28.0
396.0,423.0,18.0,28.0
396.0,423.0,18.0,28.0
395.0,423.0,18.0,28.0
395.0,423.0,19.0,28.0
394.0,423.0,19.0,28.0
394.0,423.0,19.0,28.0
394.0,423.0,18.0,28.0
394.0,423.0,18.0,28.0
394.0,424.0,18.0,28.0
393.0,424.0,18.0,28.0
393.0,425.0,18.0,28.0
393.0,425.0,18.0,28.0
392.0,425.0,19.0,28.0
392.0,425.0,19.0,28.0
391.0,425.0,19.0,28.0
390.0,426.0,19.0,28.0
389.0,426.0,19.0,28.0
389.0,426.0,19.0,28.0
389.0,426.0,19.0,28.0
389.0,426.0,19.0,28.0
389.0,426.0,19.0,28.0
389.0,426.0,19.0,28.0
389.0,426.0,19.0,28.0
389.0,427.0,19.0,28.0
388.0,427.0,19.0,28.0
388.0,428.0,19.0,28.0
388.0,428.0,19.0,28.0
388.0,428.0,19.0,28.0
388.0,428.0,19.0,28.0
388.0,428.0,19.0,28.0
388.0,428.0,19.0,28.0
388.0,428.0,19.0,28.0
387.0,428.0,19.0,28.0
387.0,428.0,18.0,28.0
386.0,428.0,18.0,28.0
385.0,429.0,18.0,28.0
385.0,429.0,18.0,28.0
384.0,430.0,18.0,28.0
384.0,430.0,18.0,28.0
384.0,430.0,18.0,28.0
384.0,430.0,18.0,28.0
383.0,431.0,18.0,28.0
383.0,431.0,18.0,28.0
382.0,432.0,18.0,28.0
382.0,432.0,18.0,28.0
382.0,432.0,18.0,28.0
382.0,432.0,18.0,28.0
381.0,432.0,18.0,28.0
381.0,432.0,18.0,28.0
380.0,432.0,18.0,28.0
379.0,433.0,18.0,28.0
379.0,433.0,18.0,28.0
378.0,434.0,18.0,28.0
378.0,435.0,18.0,28.0
377.0,436.0,18.0,28.0
377.0,437.0,18.0,28.0
377.0,436.0,18.0,28.0
377.0,436.0,18.0,28.0
377.0,435.0,18.0,28.0
377.0,435.0,18.0,28.0
377.0,435.0,18.0,28.0
377.0,435.0,18.0,28.0
376.0,435.0,18.0,28.0
374.0,435.0,18.0,28.0
373.0,435.0,18.0,28.0
373.0,435.0,18.0,28.0
373.0,435.0,18.0,28.0
373.0,435.0,18.0,28.0
372.0,435.0,18.0,28.0
372.0,435.0,18.0,28.0
371.0,435.0,18.0,28.0
371.0,434.0,18.0,29.0
371.0,433.0,18.0,30.0
371.0,432.0,18.0,31.0
371.0,432.0,18.0,31.0
370.0,433.0,18.0,30.0
370.0,433.0,18.0,30.0
369.0,433.0,18.0,30.0
368.0,432.0,18.0,30.0
367.0,432.0,18.0,30.0
367.0,431.0,18.0,31.0
367.0,431.0,18.0,32.0
367.0,430.0,18.0,33.0
366.0,430.0,18.0,32.0
366.0,430.0,18.0,32.0
365.0,430.0,18.0,31.0
364.0,429.0,18.0,31.0
364.0,428.0,18.0,31.0
363.0,427.0,18.0,31.0
363.0,427.0,18.0,31.0
362.0,427.0,18.0,31.0
362.0,427.0,18.0,31.0
362.0,427.0,18.0,31.0
361.0,426.0,18.0,31.0
361.0,426.0,18.0,31.0
360.0,426.0,18.0,31.0
360.0,426.0,18.0,31.0
359.0,426.0,18.0,31.0
358.0,425.0,18.0,31.0
358.0,425.0,18.0,31.0
357.0,424.0,18.0,31.0
357.0,424.0,18.0,31.0
357.0,424.0,18.0,31.0
357.0,424.0,18.0,31.0
356.0,425.0,18.0,31.0
356.0,426.0,18.0,31.0
355.0,427.0,18.0,31.0
354.0,428.0,18.0,31.0
353.0,429.0,18.0,31.0
352.0,430.0,18.0,31.0
351.0,429.0,18.0,32.0
351.0,429.0,18.0,32.0
350.0,428.0,18.0,33.0
350.0,429.0,18.0,33.0
349.0,429.0,18.0,33.0
349.0,430.0,18.0,33.0
348.0,431.0,18.0,33.0
348.0,433.0,18.0,33.0
347.0,434.0,18.0,33.0
347.0,435.0,18.0,33.0
346.0,436.0,18.0,33.0
346.0,437.0,18.0,33.0
345.0,437.0,18.0,33.0
343.0,438.0,18.0,33.0
342.0,438.0,18.0,33.0
341.0,439.0,19.0,33.0
341.0,441.0,19.0,34.0
340.0,442.0,20.0,34.0
339.0,442.0,20.0,34.0
339.0,443.0,20.0,34.0
338.0,443.0,20.0,34.0
337.0,444.0,20.0,34.0
337.0,444.0,20.0,34.0
336.0,445.0,20.0,34.0
336.0,446.0,20.0,34.0
336.0,446.0,20.0,34.0
336.0,447.0,20.0,34.0
335.0,448.0,20.0,34.0
333.0,450.0,20.0,34.0
332.0,451.0,20.0,34.0
332.0,452.0,20.0,34.0
331.0,452.0,20.0,34.0
331.0,453.0,20.0,34.0
330.0,455.0,19.0,34.0
330.0,456.0,19.0,34.0
329.0,458.0,18.0,34.0
328.0,459.0,18.0,34.0
327.0,460.0,19.0,34.0
326.0,461.0,19.0,34.0
326.0,462.0,19.0,34.0
326.0,462.0,19.0,34.0
326.0,463.0,19.0,34.0
325.0,465.0,19.0,34.0
323.0,466.0,19.0,34.0
322.0,468.0,19.0,34.0
321.0,469.0,19.0,34.0
321.0,470.0,19.0,34.0
320.0,471.0,19.0,34.0
319.0,472.0,19.0,34.0
319.0,474.0,19.0,34.0
318.0,475.0,19.0,34.0
317.0,476.0,21.0,35.0
316.0,476.0,22.0,37.0
315.0,477.0,24.0,38.0
314.0,478.0,24.0,38.0
314.0,480.0,25.0,39.0
313.0,481.0,25.0,39.0
313.0,482.0,25.0,39.0
312.0,484.0,24.0,38.0
312.0,485.0,24.0,38.0
312.0,486.0,24.0,38.0
311.0,487.0,24.0,39.0
311.0,488.0,24.0,39.0
312.0,489.0,25.0,39.0
312.0,489.0,25.0,40.0
313.0,490.0,26.0,40.0
315.0,491.0,26.0,40.0
317.0,491.0,26.0,40.0
319.0,492.0,26.0,40.0
321.0,492.0,26.0,40.0
324.0,493.0,26.0,41.0
326.0,493.0,26.0,41.0
329.0,494.0,26.0,41.0
331.0,494.0,25.0,41.0
334.0,495.0,25.0,41.0
336.0,496.0,24.0,41.0
337.0,497.0,24.0,42.0
339.0,498.0,23.0,42.0
339.0,499.0,23.0,42.0
340.0,500.0,24.0,42.0
340.0,501.0,24.0,42.0
340.0,504.0,24.0,41.0
340.0,507.0,25.0,40.0
340.0,510.0,25.0,39.0
340.0,510.0,25.0,40.0
339.0,510.0,26.0,42.0
339.0,510.0,26.0,43.0
339.0,511.0,26.0,42.0
339.0,513.0,26.0,40.0
339.0,514.0,26.0,39.0
340.0,515.0,26.0,39.0
341.0,517.0,26.0,39.0
342.0,518.0,26.0,39.0
342.0,519.0,26.0,39.0
343.0,519.0,26.0,39.0
343.0,520.0,26.0,39.0
344.0,520.0,27.0,39.0
346.0,521.0,27.0,39.0
347.0,521.0,28.0,39.0
349.0,522.0,28.0,39.0
352.0,522.0,28.0,39.0
354.0,523.0,28.0,39.0
357.0,524.0,28.0,39.0
361.0,525.0,28.0,39.0
364.0,526.0,28.0,39.0
367.0,526.0,28.0,39.0
371.0,525.0,28.0,40.0
374.0,525.0,28.0,40.0
379.0,525.0,28.0,40.0
383.0,525.0,28.0,40.0
388.0,525.0,28.0,40.0
391.0,526.0,28.0,40.0
395.0,526.0,28.0,40.0
398.0,527.0,28.0,40.0
401.0,527.0,28.0,40.0
404.0,528.0,28.0,40.0
407.0,528.0,28.0,40.0
410.0,529.0,28.0,40.0
412.0,529.0,28.0,40.0
415.0,530.0,28.0,40.0
416.0,531.0,28.0,40.0
416.0,533.0,28.0,40.0
417.0,534.0,28.0,40.0
418.0,535.0,28.0,40.0
419.0,537.0,28.0,40.0
420.0,538.0,28.0,40.0
419.0,539.0,28.0,41.0
418.0,540.0,28.0,42.0
417.0,541.0,28.0,43.0
416.0,542.0,29.0,43.0
414.0,544.0,30.0,44.0
413.0,545.0,31.0,44.0
412.0,547.0,31.0,44.0
411.0,549.0,31.0,44.0
410.0,551.0,31.0,44.0
409.0,552.0,31.0,44.0
408.0,554.0,31.0,44.0
407.0,555.0,31.0,44.0
406.0,556.0,31.0,44.0
406.0,557.0,31.0,44.0
405.0,558.0,31.0,44.0
403.0,561.0,31.0,44.0
401.0,563.0,31.0,44.0
399.0,566.0,31.0,44.0
399.0,568.0,31.0,44.0
399.0,569.0,31.0,44.0
399.0,571.0,31.0,44.0
398.0,573.0,31.0,44.0
397.0,575.0,31.0,44.0
396.0,577.0,31.0,44.0
395.0,578.0,31.0,46.0
394.0,578.0,31.0,47.0
393.0,579.0,31.0,49.0
392.0,581.0,31.0,49.0
392.0,582.0,31.0,49.0
391.0,584.0,31.0,49.0
390.0,586.0,31.0,49.0
390.0,588.0,31.0,49.0
389.0,590.0,31.0,49.0
389.0,591.0,31.0,49.0
388.0,593.0,31.0,49.0
388.0,594.0,31.0,49.0
387.0,595.0,31.0,49.0
385.0,597.0,31.0,49.0
384.0,598.0,31.0,49.0
384.0,600.0,31.0,49.0
383.0,602.0,31.0,49.0
383.0,604.0,31.0,49.0
383.0,605.0,31.0,49.0
382.0,606.0,31.0,49.0
382.0,607.0,31.0,49.0
381.0,609.0,31.0,49.0
380.0,610.0,31.0,49.0
379.0,612.0,31.0,49.0
378.0,613.0,31.0,49.0
377.0,615.0,31.0,49.0
376.0,616.0,31.0,49.0
375.0,617.0,31.0,50.0
374.0,617.0,31.0,52.0
373.0,618.0,31.0,53.0
373.0,619.0,31.0,52.0
373.0,620.0,31.0,51.0
373.0,621.0,31.0,50.0
373.0,622.0,31.0,50.0
372.0,624.0,32.0,50.0
372.0,625.0,32.0,50.0
372.0,626.0,32.0,50.0
371.0,627.0,32.0,50.0
371.0,628.0,32.0,50.0
370.0,628.0,32.0,50.0
370.0,628.0,33.0,50.0
369.0,628.0,33.0,50.0
368.0,629.0,33.0,50.0
367.0,629.0,33.0,50.0
366.0,630.0,33.0,50.0
365.0,630.0,34.0,50.0
363.0,631.0,35.0,50.0
362.0,631.0,36.0,50.0
362.0,631.0,36.0,51.0
362.0,631.0,36.0,53.0
362.0,631.0,36.0,54.0
361.0,631.0,36.0,54.0
360.0,631.0,36.0,54.0
359.0,631.0,36.0,54.0
359.0,631.0,36.0,54.0
359.0,631.0,36.0,54.0
359.0,631.0,36.0,54.0
358.0,632.0,36.0,54.0
357.0,633.0,36.0,54.0
356.0,634.0,36.0,54.0
356.0,634.0,36.0,54.0
356.0,634.0,36.0,54.0
356.0,634.0,36.0,54.0
356.0,634.0,36.0,54.0
356.0,634.0,36.0,54.0
356.0,634.0,36.0,54.0
355.0,632.0,36.0,54.0
353.0,630.0,36.0,54.0
352.0,628.0,36.0,54.0
352.0,627.0,36.0,54.0
352.0,626.0,36.0,54.0
352.0,625.0,36.0,54.0
352.0,624.0,36.0,54.0
352.0,622.0,36.0,54.0
352.0,621.0,36.0,54.0
352.0,619.0,36.0,54.0
352.0,617.0,36.0,54.0
352.0,615.0,36.0,54.0
352.0,613.0,36.0,54.0
351.0,611.0,36.0,54.0
351.0,609.0,36.0,54.0
350.0,607.0,36.0,54.0
350.0,606.0,36.0,54.0
349.0,604.0,36.0,54.0
349.0,603.0,36.0,54.0
349.0,602.0,36.0,54.0
349.0,601.0,36.0,54.0
349.0,600.0,36.0,54.0
349.0,599.0,36.0,54.0
349.0,598.0,36.0,54.0
349.0,595.0,36.0,55.0
349.0,593.0,36.0,56.0
349.0,590.0,36.0,57.0
349.0,589.0,36.0,57.0
348.0,588.0,36.0,57.0
348.0,587.0,36.0,57.0
348.0,587.0,36.0,57.0
348.0,587.0,36.0,57.0
348.0,587.0,36.0,57.0
348.0,584.0,36.0,57.0
349.0,581.0,36.0,57.0
349.0,578.0,36.0,57.0
349.0,577.0,36.0,57.0
349.0,575.0,36.0,57.0
349.0,574.0,36.0,57.0
349.0,572.0,36.0,57.0
348.0,571.0,36.0,57.0
348.0,569.0,36.0,57.0
348.0,567.0,36.0,57.0
349.0,564.0,36.0,57.0
349.0,562.0,36.0,57.0
349.0,559.0,36.0,57.0
349.0,557.0,36.0,57.0
349.0,554.0,36.0,57.0
350.0,552.0,36.0,57.0
351.0,549.0,36.0,57.0
352.0,547.0,36.0,57.0
352.0,545.0,36.0,57.0
352.0,543.0,36.0,57.0
352.0,541.0,36.0,57.0
352.0,538.0,36.0,57.0
352.0,536.0,36.0,57.0
352.0,533.0,36.0,57.0
352.0,530.0,36.0,57.0
353.0,527.0,36.0,57.0
353.0,524.0,36.0,57.0
354.0,522.0,36.0,56.0
354.0,521.0,36.0,56.0
355.0,519.0,36.0,55.0
355.0,517.0,36.0,55.0
354.0,515.0,36.0,55.0
354.0,513.0,36.0,55.0
355.0,511.0,36.0,55.0
356.0,509.0,36.0,55.0
357.0,507.0,36.0,55.0
357.0,505.0,36.0,55.0
357.0,502.0,36.0,55.0
357.0,500.0,36.0,55.0
357.0,498.0,36.0,55.0
357.0,495.0,36.0,55.0
357.0,493.0,36.0,55.0
